computational_data/real_data/solutions/penguins_trial_004_lex.sol
Optimal - objective value 7.88059800
      0 r_0                         0                0.985075
      1 r_1                         0                0.985075
      2 r_2                         0                0.970149
      3 r_3                         0                0.970149
      4 r_4                         1                0.970149
      5 r_5                         0                0.970149
      6 r_6                         0                0.970149
      7 r_7                         0                0.955224
      8 r_8                         0                0.955224
      9 r_9                         0                0.910448
     10 r_10                        0                0.865672
     11 r_11                        0                0.865672
     12 r_12                        0                0.835821
     13 r_13                        1                0.820896
     14 r_14                        0                 0.80597
     15 r_15                        1                0.791045
     16 b_0                         0                0.985075
     17 b_1                         0                0.985075
     18 b_2                         1                0.970149
     19 b_3                         0                0.970149
     20 b_4                         0                0.970149
     21 b_5                         0                0.970149
     22 b_6                         0                0.970149
     23 b_7                         1                0.955224
     24 b_8                         0                0.955224
     25 b_9                         0                0.910448
     26 b_10                        1                0.865672
     27 b_11                        1                0.865672
     28 b_12                        1                0.835821
     29 b_13                        0                0.820896
     30 b_14                        1                 0.80597
     31 b_15                        0                0.791045
